15,5	0,0	16,8	7,5	0,0	0,0	0,0	0,0	0,0	5,2
16,8	10,0	0,0	6,1	11,0	0,0	0,0	6,1	0,0	0,0
0,0	0,0	9,6	0,0	13,9	9,1	0,0	0,0	16,9	0,0
14,0	0,0	18,1	0,0	0,0	0,0	15,1	0,0	0,0	0,0
0,0	14,0	0,0	12,3	17,4	0,0	0,0	11,8	0,0	0,0
0,0	7,5	18,9	0,0	19,4	15,7	0,0	0,0	15,4	0,0
0,0	20,0	0,0	6,5	0,0	0,0	16,4	0,0	0,0	17,3
6,2	0,0	14,6	0,0	0,0	0,0	0,0	0,0	0,0	7,7
0,0	7,5	0,0	17,7	6,6	0,0	0,0	13,6	0,0	0,0
0,0	0,0	6,0	0,0	0,0	6,5	19,7	0,0	0,0	12,3
0,0	12,0	0,0	0,0	11,7	0,0	7,9	0,0	18,5	16,1
6,5	0,0	16,7	0,0	16,4	0,0	9,4	13,3	8,4	0,0
0,0	15,5	0,0	0,0	0,0	10,5	0,0	14,5	19,9	16,7
14,6	12,4	13,7	0,0	0,0	14,3	0,0	15,9	10,1	0,0
18,0	0,0	17,6	0,0	5,3	6,9	10,6	14,3	0,0	0,0
0,0	18,1	0,0	8,7	0,0	17,4	0,0	5,8	0,0	0,0
11,2	0,0	12,3	10,9	9,7	0,0	0,0	17,8	0,0	0,0
0,0	0,0	10,1	0,0	0,0	8,9	14,2	0,0	14,0	5,6
6,7	0,0	0,0	17,5	11,5	9,1	17,7	11,2	0,0	12,9
0,0	5,4	0,0	8,7	0,0	0,0	6,6	0,0	15,2	7,4
									
3,0	2,7	3,7	3,3	3,1	4,1	4,1	2,7	3,6	3,9
